
List of user-set options:

                                    Name   Value                used
                           compl_inf_tol = 1                     yes
                         constr_viol_tol = 1                     yes
                            dual_inf_tol = 1000                  yes
                           linear_solver = ma97                  yes
                              ma86_small = 1e-30                  no
                                  ma86_u = 0.0001                 no
                              ma97_order = best                  yes
                              ma97_small = 1e-30                 yes
                            ma97_switch1 = at_start              yes
                            ma97_switch2 = od_hd_reuse           yes
                                  ma97_u = 1e-06                 yes
                               ma97_umax = 0.5                   yes
                                max_iter = 1000                  yes
                    max_refinement_steps = 20                    yes
                    min_refinement_steps = 5                     yes
                                 mu_init = 1e-06                 yes
           mu_superlinear_decrease_power = 1.25                  yes
                   nlp_scaling_min_value = 1e-08                 yes
                        option_file_name = Preset_Case_725_pf.opt  yes
                             output_file = ./tmp/Preset_Case_725_pf.output  yes
                      print_user_options = yes                   yes
        required_infeasibility_reduction = 1                      no
                                     tol = 1e-08                 yes
                   warm_start_bound_frac = 1e-20                 yes
                   warm_start_bound_push = 1e-20                 yes
                   warm_start_init_point = yes                   yes
              warm_start_mult_bound_push = 1e-20                 yes
                warm_start_mult_init_max = 1e+40                 yes
             warm_start_slack_bound_frac = 1e-20                 yes
             warm_start_slack_bound_push = 1e-20                 yes

******************************************************************************
This program contains Ipopt, a library for large-scale nonlinear optimization.
 Ipopt is released as open source code under the Eclipse Public License (EPL).
         For more information visit http://projects.coin-or.org/Ipopt
******************************************************************************

This is Ipopt version 3.12.10, running with linear solver ma97.

Number of nonzeros in equality constraint Jacobian...:   123443
Number of nonzeros in inequality constraint Jacobian.:      213
Number of nonzeros in Lagrangian Hessian.............:    49069

Total number of variables............................:    31591
                     variables with only lower bounds:    12912
                variables with lower and upper bounds:    15130
                     variables with only upper bounds:        0
Total number of equality constraints.................:    31483
Total number of inequality constraints...............:       25
        inequality constraints with only lower bounds:        4
   inequality constraints with lower and upper bounds:        0
        inequality constraints with only upper bounds:       21

iter    objective    inf_pr   inf_du lg(mu)  ||d||  lg(rg) alpha_du alpha_pr  ls
   0 -4.9970022e+00 4.08e-03 1.02e+00  -6.0 0.00e+00    -  0.00e+00 0.00e+00   0
   1 -5.0040753e+00 9.01e+00 8.12e+01  -6.0 3.01e+05    -  1.11e-04 1.54e-03h  1
   2 -5.0040343e+00 9.01e+00 8.12e+01  -6.0 6.50e+02    -  1.07e-04 3.22e-05h  1
   3 -4.9978232e+00 8.98e+00 1.61e+02  -6.0 2.10e+04    -  1.04e-04 2.36e-03h  1
   4 -4.9965795e+00 8.97e+00 1.79e+02  -6.0 2.70e+03    -  2.41e-01 1.03e-03h  2
   5 -4.9962721e+00 8.97e+00 1.79e+02  -6.0 2.23e+03    -  1.41e-03 2.05e-04h  8
   6 -4.9961982e+00 8.97e+00 1.79e+02  -6.0 2.67e+03    -  4.88e-03 6.12e-05h 13
   7 -4.9939663e+00 8.96e+00 1.62e+02  -6.0 2.68e+03    -  1.85e-03 1.85e-03s 20
   8r-4.9939663e+00 8.96e+00 9.99e+02   1.0 0.00e+00    -  0.00e+00 0.00e+00R  1
   9r-4.9976691e+00 8.96e+00 9.99e+02   1.0 1.74e+06    -  5.92e-08 5.54e-08f  1
iter    objective    inf_pr   inf_du lg(mu)  ||d||  lg(rg) alpha_du alpha_pr  ls
  10 -5.0250701e+00 8.93e+00 1.47e+04  -6.0 1.37e+05    -  3.14e-04 3.02e-03h  1
  11 -5.0553668e+00 3.29e+01 1.45e+04  -6.0 2.17e+05    -  3.03e-06 1.00e-02h  1
  12 -5.0818565e+00 3.27e+01 2.14e+04  -6.0 8.54e+04    -  2.87e-04 1.19e-02h  1
  13 -5.0707005e+00 3.26e+01 4.47e+04  -6.0 8.25e+03    -  1.55e-02 2.63e-02h  2
  14 -5.0865857e+00 3.22e+01 5.34e+04  -6.0 2.26e+04    -  1.25e-02 1.23e-02h  1
  15 -5.1070648e+00 3.10e+01 1.46e+05  -6.0 1.76e+04    -  2.67e-02 3.75e-02h  1
  16 -5.0865570e+00 2.99e+01 1.28e+05  -6.0 5.54e+03    -  7.98e-02 3.66e-02h  1
  17 -5.0322483e+00 2.70e+01 8.35e+04  -6.0 4.07e+03    -  1.07e-01 9.62e-02h  1
  18 -5.0260511e+00 2.66e+01 8.16e+04  -6.0 2.35e+03    -  3.43e-02 1.55e-02h  4
  19 -5.0253422e+00 2.65e+01 8.14e+04  -6.0 2.29e+03    -  1.53e-01 1.95e-03h  7
iter    objective    inf_pr   inf_du lg(mu)  ||d||  lg(rg) alpha_du alpha_pr  ls
  20 -5.0249891e+00 2.65e+01 8.13e+04  -6.0 2.30e+03    -  6.30e-02 9.82e-04h  8
  21 -5.0248180e+00 2.65e+01 8.13e+04  -6.0 2.36e+03    -  1.88e-02 4.83e-04h  9
  22 -5.0247680e+00 2.64e+01 8.13e+04  -6.0 8.04e+03    -  2.72e-02 3.92e-03h  1
  23 -5.0247466e+00 2.64e+01 8.13e+04  -6.0 2.50e+03    -  1.83e-01 6.38e-05h  9
  24 -5.0247270e+00 2.64e+01 8.13e+04  -6.0 2.40e+03    -  6.94e-02 5.75e-05h 12
  25 -4.9842308e+00 2.33e+01 4.21e+04  -6.0 2.40e+03    -  1.19e-01 1.19e-01s 19
  26r-4.9842308e+00 2.33e+01 1.00e+03   1.1 0.00e+00    -  0.00e+00 0.00e+00R  1
  27r-4.9913318e+00 2.33e+01 1.01e+03   1.1 2.75e+05    -  1.49e-07 8.62e-08f  1
  28r-5.0166465e+00 2.33e+01 1.00e+03   1.1 1.92e+05    -  4.87e-07 5.58e-07f  1
  29 -5.0166476e+00 2.33e+01 1.01e+02  -6.0 3.48e+02    -  7.19e-07 5.13e-05h  1
iter    objective    inf_pr   inf_du lg(mu)  ||d||  lg(rg) alpha_du alpha_pr  ls
  30 -5.0164903e+00 2.33e+01 1.89e+02  -6.0 3.47e+02    -  3.48e-03 6.74e-04h  1
  31 -5.0156577e+00 2.32e+01 1.01e+02  -6.0 3.45e+02    -  7.36e-04 3.58e-03h  1
  32 -5.0082464e+00 2.24e+01 1.88e+03  -6.0 3.43e+02    -  4.58e-03 3.24e-02h  1
  33 -5.0081098e+00 2.24e+01 1.61e+03  -6.0 3.10e+02    -  4.84e-03 1.87e-04h  7
  34 -5.0080547e+00 2.24e+01 1.60e+03  -6.0 2.84e+02    -  2.65e-04 6.65e-05h  9
  35 -5.0080405e+00 2.24e+01 1.59e+03  -6.0 2.82e+02    -  1.82e-04 1.71e-05h 11
  36 -4.9983394e+00 2.22e+01 1.57e+03  -6.0 2.81e+02    -  1.16e-02 1.16e-02s 17
  37 -4.9890576e+00 2.19e+01 1.55e+03  -6.0 2.71e+02    -  1.16e-02 1.16e-02s 17
  38 -4.9569763e+00 2.10e+01 1.49e+03  -6.0 2.68e+02    -  4.08e-02 4.08e-02s 17
  39r-4.9569763e+00 2.10e+01 1.00e+03   1.1 0.00e+00    -  0.00e+00 0.00e+00R  1
iter    objective    inf_pr   inf_du lg(mu)  ||d||  lg(rg) alpha_du alpha_pr  ls
  40r-4.9548114e+00 2.10e+01 2.60e+04   1.1 5.50e+04    -  3.97e-07 4.64e-08f  1
  41r-4.9638147e+00 2.10e+01 2.58e+04   1.1 4.43e+04    -  6.64e-07 1.69e-06f  1
  42r-4.9509656e+00 2.09e+01 2.57e+04   1.1 1.55e+04    -  1.45e-06 2.94e-06f  1
  43r-4.9395863e+00 2.08e+01 3.04e+04   1.1 1.52e+04    -  2.33e-06 5.79e-06f  1
  44r-4.9348251e+00 2.05e+01 3.04e+04   1.1 1.49e+04    -  1.38e-05 1.28e-05f  1
  45r-4.9735378e+00 1.97e+01 3.04e+04   1.1 1.44e+04    -  1.01e-05 4.09e-05f  1
  46 -4.9735377e+00 1.97e+01 2.18e+05  -6.0 2.00e+02    -  4.72e-02 1.35e-03h  1
  47 -4.9613668e+00 1.94e+01 2.13e+06  -6.0 2.14e+02    -  1.35e-03 1.29e-02h  4
  48 -4.9601342e+00 1.94e+01 2.12e+06  -6.0 2.09e+02    -  3.17e-02 1.43e-03h  1
  49 -4.8783202e+00 1.77e+01 1.94e+06  -6.0 2.09e+02    -  2.85e-02 8.88e-02h  1
iter    objective    inf_pr   inf_du lg(mu)  ||d||  lg(rg) alpha_du alpha_pr  ls
  50 -4.8756031e+00 1.76e+01 1.93e+06  -6.0 2.07e+02    -  1.35e-01 4.04e-03h  1
  51 -4.8321360e+00 1.66e+01 1.82e+06  -6.0 2.43e+02    -  4.36e-02 5.67e-02h  1
  52 -4.7941484e+00 1.57e+01 1.72e+06  -6.0 2.28e+02    -  1.43e-01 5.61e-02h  1
  53 -4.7029975e+00 1.30e+01 1.43e+06  -6.0 2.20e+02    -  8.59e-02 1.68e-01h  1
  54 -4.6966375e+00 1.17e+01 1.28e+06  -6.0 2.00e+02    -  7.27e-02 1.06e-01h  1
  55 -4.6966871e+00 1.16e+01 1.27e+06  -6.0 1.79e+02    -  2.39e-03 1.97e-03h  1
  56 -4.6968273e+00 1.16e+01 1.27e+06  -6.0 1.78e+02    -  9.04e-05 6.09e-03h  1
  57 -4.6970022e+00 1.15e+01 1.26e+06  -6.0 1.77e+02    -  1.18e-04 7.44e-03h  1
  58 -4.6972284e+00 1.14e+01 1.25e+06  -6.0 1.75e+02    -  2.10e-04 8.72e-03h  1
  59 -4.6975067e+00 1.13e+01 1.23e+06  -6.0 1.74e+02    -  2.75e-04 1.01e-02h  1
iter    objective    inf_pr   inf_du lg(mu)  ||d||  lg(rg) alpha_du alpha_pr  ls
  60 -4.6978398e+00 1.11e+01 1.22e+06  -6.0 1.71e+02    -  3.32e-04 1.15e-02h  1
  61 -4.6982272e+00 1.10e+01 1.20e+06  -6.0 1.69e+02    -  3.84e-04 1.27e-02h  1
  62 -4.6986680e+00 1.08e+01 1.19e+06  -6.0 1.66e+02    -  4.31e-04 1.39e-02h  1
  63 -4.6991703e+00 1.07e+01 1.17e+06  -6.0 1.63e+02    -  4.77e-04 1.52e-02h  1
  64 -4.6997536e+00 1.05e+01 1.15e+06  -6.0 1.60e+02    -  5.31e-04 1.70e-02h  1
  65 -4.7004408e+00 1.03e+01 1.13e+06  -6.0 1.57e+02    -  6.07e-04 1.92e-02h  1
  66 -4.7012559e+00 1.01e+01 1.10e+06  -6.0 1.53e+02    -  7.10e-04 2.19e-02h  1
  67 -4.7022281e+00 9.81e+00 1.07e+06  -6.0 1.48e+02    -  8.44e-04 2.51e-02h  1
  68 -4.7033898e+00 9.53e+00 1.04e+06  -6.0 1.43e+02    -  1.02e-03 2.87e-02h  1
  69 -4.7047511e+00 9.22e+00 1.01e+06  -6.0 1.37e+02    -  1.25e-03 3.21e-02h  1
iter    objective    inf_pr   inf_du lg(mu)  ||d||  lg(rg) alpha_du alpha_pr  ls
  70 -4.7055762e+00 9.05e+00 9.91e+05  -6.0 1.31e+02    -  1.51e-03 1.85e-02h  1
  71r-4.7055762e+00 9.05e+00 1.00e+03   0.7 0.00e+00    -  0.00e+00 2.83e-08R  2
  72r-4.7070275e+00 9.05e+00 1.00e+03   0.7 8.69e+04    -  3.64e-08 7.59e-08f  1
  73 -4.7070291e+00 9.05e+00 1.01e+02  -6.0 1.10e+02    -  1.16e-04 1.35e-05h  1
  74 -4.7071428e+00 9.04e+00 1.01e+02  -6.0 1.30e+02    -  6.72e-05 9.82e-04f  1
  75 -4.7071577e+00 9.04e+00 4.28e+02  -6.0 1.29e+02    -  5.31e-03 1.81e-04h  1
  76 -4.7073698e+00 9.01e+00 4.95e+03  -6.0 1.30e+02    -  4.91e-02 2.67e-03h  1
  77 -4.7073721e+00 9.01e+00 5.12e+03  -6.0 4.01e+02    -  2.43e-05 1.10e-06h  2
  78 -4.7078631e+00 9.01e+00 5.38e+03  -6.0 3.48e+02    -  7.14e-05 2.71e-04h  1
  79 -4.7085815e+00 9.01e+00 9.02e+03  -6.0 2.50e+02    -  3.44e-04 5.82e-04f  1
iter    objective    inf_pr   inf_du lg(mu)  ||d||  lg(rg) alpha_du alpha_pr  ls
  80 -4.7103999e+00 8.99e+00 1.67e+04  -6.0 2.71e+02    -  1.00e-03 1.72e-03h  1
  81 -4.7232025e+00 8.85e+00 8.05e+04  -6.0 2.82e+02    -  3.23e-03 1.60e-02f  1
  82 -4.7432030e+00 8.28e+00 3.12e+04  -6.0 2.06e+02    -  1.92e-02 6.39e-02h  1
  83 -4.7491929e+00 7.95e+00 2.84e+04  -6.0 1.15e+02    -  4.68e-02 4.05e-02h  1
  84 -4.7736381e+00 7.19e+00 3.05e+04  -6.0 1.02e+02    -  3.76e-02 9.50e-02h  1
  85 -4.7755185e+00 7.00e+00 2.61e+04  -6.0 7.36e+01    -  1.50e-01 2.63e-02h  1
  86 -4.7680505e+00 5.76e+00 2.03e+04  -6.0 7.79e+01    -  2.93e-01 1.77e-01h  1
  87 -4.7829932e+00 3.62e+00 1.88e+04  -6.0 4.23e+01    -  4.37e-01 3.71e-01h  1
  88 -4.8680080e+00 2.20e+00 6.10e+03  -6.0 2.86e+01    -  1.53e-01 3.92e-01h  1
  89 -5.1303111e+00 8.36e-01 1.87e+04  -6.0 2.95e+01    -  1.56e-02 6.20e-01h  1
iter    objective    inf_pr   inf_du lg(mu)  ||d||  lg(rg) alpha_du alpha_pr  ls
  90 -5.1303471e+00 8.35e-01 3.75e+04  -6.0 5.64e+01    -  5.04e-01 9.78e-04h  1
  91 -5.1376023e+00 7.08e-01 3.32e+04  -6.0 5.58e+01    -  2.98e-01 1.52e-01h  1
  92 -5.1586364e+00 8.45e-01 6.64e+03  -6.0 5.38e+01    -  5.65e-01 9.29e-01h  1
  93 -5.2098638e+00 5.38e-01 4.89e+03  -6.0 3.92e+01    -  5.91e-01 3.66e-01h  1
  94 -5.2846598e+00 3.66e-01 5.26e+03  -6.0 8.24e+01    -  5.23e-01 4.82e-01h  1
  95 -5.3132380e+00 2.45e-01 4.05e+03  -6.0 6.75e+01    -  6.68e-01 3.28e-01h  1
  96 -5.3292035e+00 1.97e-01 2.83e+03  -6.0 1.25e+02    -  3.90e-01 1.99e-01h  1
  97 -5.3712445e+00 1.63e-01 1.33e+03  -6.0 1.73e+02    -  5.76e-01 5.43e-01h  1
  98 -5.4052082e+00 2.67e-01 2.40e+03  -6.0 1.93e+02    -  7.87e-01 5.45e-01h  1
  99 -5.4160888e+00 2.41e-01 1.61e+03  -6.0 1.97e+02    -  1.99e-01 2.39e-01h  1
iter    objective    inf_pr   inf_du lg(mu)  ||d||  lg(rg) alpha_du alpha_pr  ls
 100 -5.4384948e+00 2.82e-01 3.85e+02  -6.0 1.97e+02    -  5.71e-01 6.50e-01f  1
 101 -5.4538485e+00 6.28e+00 6.87e+03  -6.0 6.10e+02    -  3.85e-01 1.00e+00h  1
 102 -5.4568255e+00 5.67e+00 3.63e+04  -6.0 9.86e+02    -  5.05e-01 1.64e-01h  1
 103 -5.4743374e+00 1.83e+01 5.98e+04  -6.0 1.22e+03    -  4.77e-01 8.53e-01h  1
 104 -5.4779890e+00 1.61e+01 1.54e+05  -6.0 1.04e+03    -  3.30e-01 1.35e-01h  1
 105 -5.4872785e+00 1.30e+01 5.61e+05  -6.0 1.43e+03    -  6.41e-01 3.06e-01h  1
 106r-5.4872785e+00 1.30e+01 1.00e+03   0.9 0.00e+00    -  0.00e+00 1.61e-07R  2
 107r-5.4893183e+00 1.30e+01 1.00e+03   0.9 4.32e+04    -  1.58e-07 1.17e-07f  1
 108 -5.4889939e+00 1.19e+01 7.33e+04  -6.0 3.65e+00    -  1.14e-06 8.39e-02h  1
 109 -5.4870236e+00 5.32e+00 3.27e+04  -6.0 3.34e+00    -  1.29e-01 5.54e-01h  1
iter    objective    inf_pr   inf_du lg(mu)  ||d||  lg(rg) alpha_du alpha_pr  ls
 110 -5.4867361e+00 4.14e+00 2.54e+04  -6.0 1.46e+00    -  7.81e-01 2.22e-01h  1
 111 -5.4866961e+00 6.14e-04 1.85e+01  -6.0 1.38e+00    -  7.83e-01 1.00e+00h  1
 112 -5.4900130e+00 4.05e-03 1.41e+01  -6.0 5.24e+00    -  8.08e-01 1.00e+00h  1
 113 -5.4935751e+00 1.12e-02 8.73e+00  -6.0 2.25e+01    -  8.38e-01 7.26e-01h  1
 114 -5.5045612e+00 1.49e-01 7.71e+01  -6.0 1.27e+02    -  3.28e-01 4.66e-01h  1
 115 -5.5045604e+00 1.48e-01 6.01e+05  -6.0 4.03e+01    -  5.90e-01 2.06e-03h  1
 116 -5.5090467e+00 1.45e-01 2.75e+04  -6.0 1.19e+02    -  8.30e-01 2.37e-01f  1
 117 -5.5169017e+00 5.65e-01 5.29e+03  -6.0 1.94e+02    -  9.06e-01 8.56e-01f  1
 118 -5.5207975e+00 4.55e-01 6.14e+03  -6.0 5.07e+03    -  3.65e-02 1.89e-02h  1
 119 -5.5289211e+00 4.14e+00 1.27e+03  -6.0 1.01e+03    -  6.21e-01 4.20e-01h  1
iter    objective    inf_pr   inf_du lg(mu)  ||d||  lg(rg) alpha_du alpha_pr  ls
 120 -5.5334097e+00 9.94e+00 1.01e+03  -6.0 1.76e+03    -  3.43e-01 3.28e-01h  1
 121 -5.5443481e+00 3.24e+01 5.60e+03  -6.0 1.39e+03    -  6.58e-03 8.78e-01h  1
 122 -5.5444354e+00 3.18e+01 8.98e+04  -6.0 6.19e+01  -4.0 3.07e-03 1.95e-02h  1
 123 -5.5452178e+00 2.50e+01 8.30e+03  -6.0 3.25e+00  -4.5 4.51e-02 2.12e-01h  1
 124 -5.5480646e+00 1.20e-02 3.68e+03  -6.0 5.77e+00  -5.0 2.35e-01 1.00e+00h  1
 125 -5.5496603e+00 5.97e-03 4.08e+00  -6.0 1.17e+01  -5.4 9.99e-01 1.00e+00h  1
 126 -5.5521428e+00 2.92e-02 1.83e+00  -6.0 2.60e+01  -5.9 1.00e+00 1.00e+00h  1
 127 -5.5556543e+00 9.44e-02 4.81e+00  -6.0 4.68e+01  -6.4 1.00e+00 1.00e+00h  1
 128 -5.5599584e+00 2.06e-01 6.86e+00  -6.0 7.25e+01  -6.9 1.00e+00 1.00e+00h  1
 129 -5.5673159e+00 1.42e+00 5.87e+00  -6.0 4.04e+02  -7.3 5.41e-01 5.28e-01h  1
iter    objective    inf_pr   inf_du lg(mu)  ||d||  lg(rg) alpha_du alpha_pr  ls
 130 -5.5675182e+00 1.23e-01 5.49e+01  -6.0 6.36e+01  -7.8 1.00e+00 1.00e+00h  1
 131 -5.5751550e+00 1.36e+00 1.48e+02  -6.0 7.63e+02  -7.4 2.76e-01 2.73e-01h  1
 132 -5.5849254e+00 1.06e+00 2.10e+04  -6.0 2.09e+02  -7.9 1.00e+00 7.93e-01h  1
 133 -5.5876330e+00 8.72e-01 3.68e+05  -6.0 4.04e+02  -8.3 6.91e-02 2.15e-01h  1
 134 -5.5876566e+00 8.72e-01 3.69e+05  -6.0 4.25e+03  -8.8 4.11e-02 7.38e-05h  1
 135 -5.6061332e+00 3.76e+00 7.38e+05  -6.0 6.90e+02  -9.3 3.32e-01 7.16e-01f  1
 136 -5.6013708e+00 5.20e+00 9.52e+05  -6.0 1.44e+03  -9.8 3.41e-03 3.43e-01H  1
 137 -5.6146529e+00 5.78e+00 4.00e+05  -6.0 5.47e+03    -  1.54e-01 3.51e-02h  1
 138 -5.6176030e+00 9.98e+00 4.05e+05  -6.0 5.24e+03    -  8.82e-02 1.09e-01h  1
 139 -5.6210742e+00 1.13e+01 1.51e+05  -6.0 3.57e+03    -  3.16e-01 1.11e-01h  1
iter    objective    inf_pr   inf_du lg(mu)  ||d||  lg(rg) alpha_du alpha_pr  ls
 140r-5.6210742e+00 1.13e+01 1.00e+03   1.0 0.00e+00    -  0.00e+00 6.17e-08R  2
 141r-5.6257331e+00 1.13e+01 1.00e+03   1.0 1.12e+05    -  2.50e-07 1.07e-07f  1
 142 -5.6300077e+00 1.13e+01 3.03e+02  -6.0 1.62e+05    -  1.10e-02 1.21e-03h  1
 143 -5.6341112e+00 1.12e+01 3.02e+02  -6.0 9.51e+04    -  4.34e-03 7.46e-03h  1
 144 -5.6898172e+00 1.29e+01 7.87e+02  -6.0 4.33e+04    -  4.98e-02 9.42e-02h  1
 145 -6.1099943e+00 2.05e+01 8.65e+02  -6.0 3.58e+04    -  3.15e-05 5.99e-02h  1
 146 -6.1095762e+00 2.05e+01 8.64e+02  -6.0 5.73e+01  -3.9 2.36e-04 5.41e-04h  1
 147 -6.1071546e+00 2.05e+01 8.61e+02  -6.0 2.63e+01  -4.4 8.07e-03 3.31e-03h  1
 148 -6.0890304e+00 2.00e+01 8.40e+02  -6.0 3.68e+01  -4.9 4.32e-03 2.22e-02h  1
 149 -6.0725812e+00 1.96e+01 8.21e+02  -6.0 3.54e+01  -5.4 1.70e-01 2.10e-02h  1
iter    objective    inf_pr   inf_du lg(mu)  ||d||  lg(rg) alpha_du alpha_pr  ls
 150 -6.0719229e+00 1.96e+01 8.20e+02  -6.0 5.28e+02  -5.8 6.81e-03 1.35e-03h  1
 151 -6.0660167e+00 1.93e+01 8.11e+02  -6.0 7.83e+02  -6.3 3.61e-04 1.19e-02h  1
 152 -5.9112251e+00 1.61e+01 5.33e+02  -6.0 1.60e+02  -6.8 1.86e-02 1.68e-01h  1
 153 -5.8937539e+00 1.57e+01 5.13e+02  -6.0 3.78e+02  -5.5 8.38e-03 2.98e-02h  1
 154 -5.8859502e+00 1.54e+01 5.05e+02  -6.0 9.05e+01  -5.9 2.08e-02 1.56e-02h  1
 155 -5.8719681e+00 1.49e+01 4.87e+02  -6.0 2.58e+02  -6.4 2.01e-02 3.21e-02h  1
 156 -5.8454987e+00 1.39e+01 3.02e+03  -6.0 3.42e+02  -6.9 1.40e-01 6.57e-02h  1
 157 -5.8100204e+00 1.25e+01 7.18e+03  -6.0 5.28e+02  -7.4 1.94e-01 1.04e-01h  1
 158 -5.6540385e+00 6.77e+00 1.31e+04  -6.0 2.44e+02  -6.9 1.15e-01 4.53e-01h  2
 159 -5.6508526e+00 6.56e+00 8.40e+03  -6.0 2.36e+03  -7.4 6.09e-02 3.12e-02h  1
iter    objective    inf_pr   inf_du lg(mu)  ||d||  lg(rg) alpha_du alpha_pr  ls
 160 -5.5960985e+00 4.36e+00 6.42e+03  -6.0 2.22e+02  -7.0 3.27e-01 3.34e-01h  1
 161 -5.6018608e+00 4.02e+00 5.92e+03  -6.0 2.51e+03  -7.5 8.55e-02 8.63e-02h  1
 162 -5.6164992e+00 7.68e+00 7.46e+03  -6.0 1.93e+03  -8.0 8.95e-02 2.61e-01h  1
 163 -5.6098397e+00 9.77e+00 1.91e+04  -6.0 7.76e+02  -8.4 2.21e-01 3.07e-01H  1
 164 -5.6048230e+00 8.88e+00 1.82e+05  -6.0 8.43e+02  -8.9 4.56e-03 9.56e-02h  1
 165 -5.6051474e+00 8.90e+00 1.81e+05  -6.0 4.22e+04  -9.4 2.56e-02 2.54e-03f  1
 166 -5.6022149e+00 8.03e+00 1.63e+05  -6.0 2.08e+03  -9.9 3.27e-02 9.83e-02h  4
 167 -5.6021668e+00 8.01e+00 1.63e+05  -6.0 1.01e+03    -  4.30e-01 1.66e-03h  8
 168 -5.6021385e+00 8.00e+00 1.63e+05  -6.0 1.01e+03    -  2.57e-01 9.77e-04h 11
 169 -5.5628323e+00 9.34e-02 1.10e+06  -6.0 1.01e+03    -  8.00e-02 1.00e+00H  1
iter    objective    inf_pr   inf_du lg(mu)  ||d||  lg(rg) alpha_du alpha_pr  ls
 170 -5.5628766e+00 1.26e-01 1.09e+06  -6.0 2.36e+04 -10.3 7.12e-02 4.06e-03h  4
 171 -5.5644430e+00 8.44e-01 7.82e+05  -6.0 7.47e+02  -9.0 9.32e-01 2.83e-01h  1
 172 -5.5647444e+00 8.27e-01 7.22e+05  -6.0 1.37e+03  -9.5 1.00e+00 7.68e-02h  3
 173 -5.5657317e+00 1.28e+00 5.42e+05  -6.0 7.65e+02  -8.2 3.28e-01 2.50e-01h  3
 174 -5.5664478e+00 3.65e-01 5.97e+00  -6.0 1.44e+02  -8.6 1.00e+00 1.00e+00h  1
 175 -5.5669950e+00 8.50e-01 1.55e+01  -6.0 7.34e+02  -9.1 1.00e+00 2.45e-01h  2
 176 -5.5670552e+00 8.22e-01 4.55e+01  -6.0 2.07e+03    -  8.56e-01 5.00e-02h  1
 177 -5.5671950e+00 8.05e-01 3.64e+01  -6.0 1.16e+03    -  1.00e+00 1.45e-01h  3
 178 -5.5672414e+00 7.55e-01 3.62e+01  -6.0 9.38e+02    -  1.00e+00 8.87e-02h  4
 179 -5.5672825e+00 8.43e-01 3.39e+01  -6.0 9.09e+02    -  1.00e+00 1.07e-01h  4
iter    objective    inf_pr   inf_du lg(mu)  ||d||  lg(rg) alpha_du alpha_pr  ls
 180 -5.5672986e+00 8.51e-01 3.51e+01  -6.0 9.30e+02    -  1.00e+00 5.68e-02h  5
 181 -5.5673100e+00 8.54e-01 4.00e+01  -6.0 1.02e+03    -  1.00e+00 4.36e-02h  5
 182 -5.5674587e+00 8.73e+00 2.27e+01  -6.0 1.18e+03    -  1.00e+00 5.44e-01h  1
 183 -5.5676564e+00 8.96e-02 4.42e+01  -6.0 7.44e+01  -7.8 2.28e-02 1.00e+00h  1
 184 -5.5677914e+00 3.30e-02 3.43e+00  -6.0 4.57e+01  -7.4 1.00e+00 1.00e+00h  1
 185 -5.5679161e+00 7.15e-03 9.31e-01  -6.0 2.12e+01  -6.9 7.30e-01 1.00e+00h  1
 186 -5.5680962e+00 2.22e+00 2.38e+00  -6.0 3.53e+01  -4.7 1.21e-01 1.31e-01h  1
 187 -5.5691710e+00 1.96e+00 8.37e+04  -6.0 2.62e+03    -  4.54e-01 1.23e-01h  1
 188 -5.5711508e+00 8.36e+00 5.06e+04  -6.0 3.29e+04    -  1.52e-02 2.10e-02h  1
 189 -5.5759893e+00 3.37e+00 9.18e+04  -6.0 5.73e+00  -5.2 7.80e-01 5.98e-01h  1
iter    objective    inf_pr   inf_du lg(mu)  ||d||  lg(rg) alpha_du alpha_pr  ls
 190r-5.5759893e+00 3.37e+00 1.00e+03   0.4 0.00e+00  -5.7 0.00e+00 4.38e-07R  2
 191r-5.5924347e+00 3.36e+00 1.00e+03   0.4 1.39e+04    -  7.67e-07 9.92e-07f  1
 192 -5.5904529e+00 2.94e+00 9.47e+04  -6.0 1.57e+00    -  1.84e-01 1.25e-01h  1
 193 -5.5881003e+00 2.45e+00 1.82e+05  -6.0 1.39e+00    -  1.25e-01 1.69e-01h  1
 194 -5.5764738e+00 2.76e-03 4.97e+01  -6.0 1.16e+00    -  7.09e-01 1.00e+00h  1
 195 -5.5769873e+00 2.16e-04 1.67e+01  -6.0 6.46e-01    -  9.16e-01 1.00e+00h  1
 196 -5.5803395e+00 7.65e-03 1.70e+01  -6.0 3.24e+00    -  6.04e-01 1.00e+00h  1
 197 -5.5796359e+00 2.76e-03 1.43e+00  -6.0 8.00e+00    -  9.08e-01 1.00e+00H  1
 198 -5.5810608e+00 5.70e-02 1.53e+00  -6.0 6.00e+01    -  6.48e-01 1.00e+00h  1
 199 -5.5830172e+00 3.63e-01 1.15e+00  -6.0 1.51e+02    -  9.28e-01 1.00e+00h  1
iter    objective    inf_pr   inf_du lg(mu)  ||d||  lg(rg) alpha_du alpha_pr  ls
 200 -5.5830017e+00 2.51e-03 1.79e-01  -6.0 5.37e+00  -6.1 9.14e-01 1.00e+00h  1
 201 -5.5832335e+00 4.15e-03 1.35e-01  -6.0 1.59e+01  -6.6 9.95e-01 1.00e+00h  1
 202 -5.5839025e+00 4.02e-02 7.84e-01  -6.0 4.93e+01  -7.1 1.00e+00 1.00e+00h  1
 203 -5.5857357e+00 4.45e-01 2.51e+00  -6.0 1.64e+02  -7.6 1.00e+00 9.99e-01h  1
 204 -5.5896516e+00 3.64e+00 6.32e+00  -6.0 6.91e+02  -8.0 1.00e+00 6.67e-01h  1
 205 -5.5904087e+00 2.92e+00 1.09e+01  -6.0 3.17e+02  -7.6 1.00e+00 2.18e-01h  1
 206 -5.5909012e+00 2.85e+00 3.40e+01  -6.0 3.59e+03    -  4.09e-01 2.77e-02h  4
 207 -5.5917034e+00 2.77e+00 3.65e+01  -6.0 3.80e+03    -  8.27e-02 4.46e-02h  3
 208 -5.5919837e+00 2.74e+00 1.19e+02  -6.0 3.00e+03    -  1.00e+00 1.53e-02h  5
 209 -5.5925054e+00 2.67e+00 1.18e+02  -6.0 2.64e+03    -  6.36e-02 3.12e-02h  5
iter    objective    inf_pr   inf_du lg(mu)  ||d||  lg(rg) alpha_du alpha_pr  ls
 210 -5.6029528e+00 4.19e+01 1.23e+02  -6.0 2.42e+03    -  1.00e+00 6.34e-01h  1
 211 -5.6029494e+00 4.08e+01 1.19e+02  -6.0 3.14e+03    -  4.39e-01 2.80e-02h  1
 212 -5.6026024e+00 4.56e+01 1.57e+01  -6.0 1.78e+03    -  1.00e+00 9.24e-01h  1
 213 -5.6025170e+00 4.07e+01 7.37e+01  -6.0 9.30e+02    -  4.84e-01 1.09e-01h  2
 214 -5.6025082e+00 4.02e+01 4.96e+01  -6.0 1.21e+03    -  1.00e+00 1.28e-02h  5
 215 -5.6025052e+00 4.00e+01 6.39e+01  -6.0 1.12e+03    -  5.10e-01 4.33e-03h  7
 216 -5.6025043e+00 4.00e+01 5.01e+01  -6.0 1.00e+03    -  2.77e-01 1.26e-03h  9
 217 -5.6025043e+00 4.00e+01 4.96e+01  -6.0 6.83e+02    -  1.00e+00 6.10e-05h 15
 218 -5.6022561e+00 2.65e+01 3.22e+01  -6.0 8.99e+02    -  1.75e-01 3.58e-01h  1
 219 -5.6017588e+00 1.99e+01 2.48e+01  -6.0 1.05e+03    -  1.66e-01 1.00e+00h  1
iter    objective    inf_pr   inf_du lg(mu)  ||d||  lg(rg) alpha_du alpha_pr  ls
 220 -5.6016623e+00 1.52e+00 9.92e+00  -6.0 2.86e+02    -  1.30e-01 1.00e+00h  1
 221 -5.6016915e+00 1.24e+00 6.32e-01  -6.0 2.68e+02    -  1.00e+00 1.00e+00h  1
 222 -5.6016956e+00 2.49e-01 1.07e-01  -6.0 1.18e+02    -  1.00e+00 1.00e+00h  1
 223 -5.6016937e+00 1.87e-05 1.27e-05  -6.0 7.84e-01    -  1.00e+00 1.00e+00h  1
 224 -5.6016937e+00 2.82e-10 4.11e-11  -6.0 8.85e-04    -  1.00e+00 1.00e+00h  1
 225 -5.6020177e+00 6.52e+00 1.07e+02  -7.5 8.31e+02    -  6.01e-01 7.79e-01f  1
 226 -5.6019672e+00 1.76e+00 2.21e+01  -7.5 2.53e+02    -  8.56e-01 8.50e-01h  1
 227 -5.6019518e+00 2.94e-02 3.60e-01  -7.5 3.96e+01    -  1.00e+00 1.00e+00h  1
 228 -5.6019516e+00 9.81e-06 8.10e-05  -7.5 7.97e-01    -  1.00e+00 1.00e+00h  1
 229 -5.6019516e+00 2.84e-10 5.22e-11  -7.5 4.93e-04    -  1.00e+00 1.00e+00h  1
iter    objective    inf_pr   inf_du lg(mu)  ||d||  lg(rg) alpha_du alpha_pr  ls
 230 -5.6019534e+00 1.04e-02 8.46e-01  -9.0 3.03e+01    -  9.27e-01 8.35e-01h  1
 231 -5.6019536e+00 4.17e-04 4.85e-03  -9.0 5.05e+00    -  1.00e+00 1.00e+00h  1
 232 -5.6019536e+00 5.68e-10 4.02e-09  -9.0 6.27e-03    -  1.00e+00 1.00e+00h  1

Number of Iterations....: 232

                                   (scaled)                 (unscaled)
Objective...............:  -4.3765262350914540e+00   -5.6019535809170611e+00
Dual infeasibility......:   4.0218793138832612e-09    5.1480055217705741e-09
Constraint violation....:   4.6640033178140736e-10    5.6752469390630722e-10
Complementarity.........:   1.2840140470652007e-09    1.6435379802434568e-09
Overall NLP error.......:   4.0218793138832612e-09    5.1480055217705741e-09


Number of objective function evaluations             = 520
Number of objective gradient evaluations             = 227
Number of equality constraint evaluations            = 520
Number of inequality constraint evaluations          = 520
Number of equality constraint Jacobian evaluations   = 240
Number of inequality constraint Jacobian evaluations = 240
Number of Lagrangian Hessian evaluations             = 232
Total CPU secs in IPOPT (w/o function evaluations)   =    515.506
Total CPU secs in NLP function evaluations           =     10.296

EXIT: Optimal Solution Found.
